GLPSOL--GLPK LP/MIP Solver 5.0
Parameter(s) specified in the command line:
 --lp ../modeles/10_329.lp --log 10_329.log
Reading problem data from '../modeles/10_329.lp'...
3331 rows, 6600 columns, 23080 non-zeros
3290 integer variables, all of which are binary
9947 lines were read
GLPK Integer Optimizer 5.0
3331 rows, 6600 columns, 23080 non-zeros
3290 integer variables, all of which are binary
Preprocessing...
3260 constraint coefficient(s) were reduced
3331 rows, 6590 columns, 23070 non-zeros
3290 integer variables, all of which are binary
Scaling...
 A: min|aij| =  3.695e-05  max|aij| =  4.000e+00  ratio =  1.082e+05
GM: min|aij| =  5.513e-02  max|aij| =  1.814e+01  ratio =  3.290e+02
EQ: min|aij| =  3.040e-03  max|aij| =  1.000e+00  ratio =  3.290e+02
2N: min|aij| =  2.365e-03  max|aij| =  1.774e+00  ratio =  7.502e+02
Constructing initial basis...
Size of triangular part is 3331
Solving LP relaxation...
GLPK Simplex Optimizer 5.0
3331 rows, 6590 columns, 23070 non-zeros
      0: obj =   2.000000000e+01 inf =   4.950e+01 (21)
    189: obj =   4.998198448e-01 inf =   0.000e+00 (0)
*   526: obj =  -3.161693360e+00 inf =   2.567e-16 (0)
OPTIMAL LP SOLUTION FOUND
Integer optimization begins...
Long-step dual simplex will be used
+   526: mip =     not found yet >=              -inf        (1; 0)
+   999: >>>>>  -3.161693360e+00 >=  -3.161693360e+00 < 0.1% (469; 0)
+   999: mip =  -3.161693360e+00 >=     tree is empty   0.0% (0; 937)
INTEGER OPTIMAL SOLUTION FOUND
Time used:   2.8 secs
Memory used: 9.7 Mb (10222422 bytes)
